data;
/* data  section */

set FLIGHTS := F1 F2 F3 F4 F5 F6;
set CREWTOTAL := P1 P2 P3 A1 A2 A3;
set PILOTS := P1 P2 P3;
set ATTENDANTS := A1 A2 A3;


param Volume:=
M1		0.006;
M2		0.008;
M3		0.03;

param Number:=
M1		22;
M2		18;
M3		11;

param Cost:=
M1		10;
M2		20;
M3		30;

param Weight:=
M1		7;
M2		8;
M3		10;

param Allowed_Weight:=
C1		50;
C2		60;
C3		40;
C4		50;
C5		60;
C6		40;

param Allowed_Volume:=
C1		0.1;
C2		0.15;
C3		0.07;
C4		0.1;
C5		0.15;
C6		0.07;

end;
